2553 1743 100 99 98 97 96 95 94 93 92 91 90 89 88 87 86 85 84 83 82 81 80 79 78 77 76 75 74 73 72 71 70 69 68 67 66 65 64 63 62 61 59 58 57 56 55 54 51 48 46 45 44 43 42 41 40 39 38 37 36 35 34 33 32 31 29 28 27 26 24 22 21 20 19 16 15 13 12 10 8 6 5 